WARNING: for repeatability, setting FPU to use double precision
============================[ Problem Statistics ]=============================
|                                                                             |
|  Number of variables:         27899                                         |
|  Number of clauses:          327877                                         |
|  Parse time:                   0.15 s                                       |
|  Eliminated clauses:           0.02 Mb                                      |
|  Simplification time:          0.16 s                                       |
|                                                                             |
============================[ Search Statistics ]==============================
| Conflicts |          ORIGINAL         |          LEARNT          | Progress |
|           |    Vars  Clauses Literals |    Limit  Clauses Lit/Cl |          |
===============================================================================
|       100 |    2862    32282    88829 |    11836      100     31 | 85.053 % |
|       250 |    2862    32282    88829 |    13020      250     35 | 85.053 % |
|       475 |    2862    32282    88829 |    14322      475     35 | 85.053 % |
|       812 |    2862    32282    88829 |    15754      812     28 | 85.053 % |
|      1318 |    2862    32282    88829 |    17330     1318     37 | 85.053 % |
|      2077 |    2862    32282    88829 |    19063     2077     38 | 85.053 % |
|      3216 |    2862    32282    88829 |    20969     3216     57 | 85.053 % |
|      4924 |    2862    32282    88829 |    23066     4924     58 | 85.053 % |
|      7486 |    2862    32282    88829 |    25373     7486     59 | 85.053 % |
|     11330 |    2862    32282    88829 |    27910    11330     54 | 85.053 % |
|     17096 |    2862    32282    88829 |    30701    17096     61 | 85.053 % |
|     25745 |    2862    32282    88829 |    33771    25745     71 | 85.053 % |
|     38719 |    2862    32282    88829 |    37148    38719     66 | 85.053 % |
|     58180 |    2862    32282    88829 |    40863    58180     63 | 85.053 % |
|     87372 |    2861    32268    88792 |    44949    35670     67 | 85.057 % |
===============================================================================
restarts              : 255
conflicts             : 95253          (27760 /sec)
decisions             : 362093         (0.00 % random) (105526 /sec)
propagations          : 6499248        (1894091 /sec)
conflict literals     : 6226571        (6.17 % deleted)
Memory used           : 62.00 MB
CPU time              : 3.43133 s

SATISFIABLE
WARNING: for repeatability, setting FPU to use double precision
============================[ Problem Statistics ]=============================
|                                                                             |
|  Number of variables:         27899                                         |
|  Number of clauses:          327877                                         |
|  Parse time:                   0.09 s                                       |
|  Eliminated clauses:           0.02 Mb                                      |
|  Simplification time:          0.11 s                                       |
|                                                                             |
============================[ Search Statistics ]==============================
| Conflicts |          ORIGINAL         |          LEARNT          | Progress |
|           |    Vars  Clauses Literals |    Limit  Clauses Lit/Cl |          |
===============================================================================
|       100 |    2862    32282    88829 |    11836      100     31 | 85.053 % |
|       250 |    2862    32282    88829 |    13020      250     35 | 85.053 % |
|       475 |    2862    32282    88829 |    14322      475     35 | 85.053 % |
|       812 |    2862    32282    88829 |    15754      812     28 | 85.053 % |
|      1318 |    2862    32282    88829 |    17330     1318     37 | 85.053 % |
|      2077 |    2862    32282    88829 |    19063     2077     38 | 85.053 % |
|      3216 |    2862    32282    88829 |    20969     3216     57 | 85.053 % |
|      4924 |    2862    32282    88829 |    23066     4924     58 | 85.053 % |
|      7486 |    2862    32282    88829 |    25373     7486     59 | 85.053 % |
|     11330 |    2862    32282    88829 |    27910    11330     54 | 85.053 % |
|     17096 |    2862    32282    88829 |    30701    17096     61 | 85.053 % |
|     25745 |    2862    32282    88829 |    33771    25745     71 | 85.053 % |
|     38719 |    2862    32282    88829 |    37148    38719     66 | 85.053 % |
|     58180 |    2862    32282    88829 |    40863    58180     63 | 85.053 % |
|     87372 |    2861    32268    88792 |    44949    35670     67 | 85.057 % |
===============================================================================
restarts              : 255
conflicts             : 95253          (40290 /sec)
decisions             : 362093         (0.00 % random) (153159 /sec)
propagations          : 6499248        (2749069 /sec)
conflict literals     : 6226571        (6.17 % deleted)
Memory used           : 62.00 MB
CPU time              : 2.36416 s

SATISFIABLE
